
******************************************************************************
This program contains Ipopt, a library for large-scale nonlinear optimization.
 Ipopt is released as open source code under the Eclipse Public License (EPL).
         For more information visit http://projects.coin-or.org/Ipopt
******************************************************************************

This is Ipopt version 3.12.6, running with linear solver ma57.

Number of nonzeros in equality constraint Jacobian...:        8
Number of nonzeros in inequality constraint Jacobian.:        0
Number of nonzeros in Lagrangian Hessian.............:        9

Total number of variables............................:        5
                     variables with only lower bounds:        0
                variables with lower and upper bounds:        0
                     variables with only upper bounds:        0
Total number of equality constraints.................:        3
Total number of inequality constraints...............:        0
        inequality constraints with only lower bounds:        0
   inequality constraints with lower and upper bounds:        0
        inequality constraints with only upper bounds:        0

iter    objective    inf_pr   inf_du lg(mu)  ||d||  lg(rg) alpha_du alpha_pr  ls
   0  1.0000000e+00 1.18e+01 9.91e-01  -1.0 0.00e+00    -  0.00e+00 0.00e+00   0
   1  1.0855217e+01 2.87e+00 2.38e+01  -1.0 2.87e+00    -  1.00e+00 1.00e+00h  1
   2  2.3513749e+00 7.49e-01 6.79e+00  -1.0 5.65e-01    -  1.00e+00 1.00e+00f  1
   3  8.7870444e-01 2.18e-01 1.74e+00  -1.0 3.01e-01    -  1.00e+00 1.00e+00f  1
   4  7.6366397e-01 6.48e-02 2.63e-01  -1.0 2.02e-01    -  1.00e+00 1.00e+00h  1
   5  8.2112244e-01 3.26e-03 5.06e-02  -1.7 4.76e-02    -  1.00e+00 1.00e+00h  1
   6  8.2485642e-01 3.08e-05 6.07e-04  -2.5 8.58e-03    -  1.00e+00 1.00e+00h  1
   7  8.2489176e-01 1.19e-08 3.34e-08  -5.7 1.06e-04    -  1.00e+00 1.00e+00h  1
   8  8.2489178e-01 2.98e-16 1.55e-15  -8.6 1.23e-08    -  1.00e+00 1.00e+00h  1

Number of Iterations....: 8

                                   (scaled)                 (unscaled)
Objective...............:   8.2489177761949861e-01    8.2489177761949861e-01
Dual infeasibility......:   1.5543122344752192e-15    1.5543122344752192e-15
Constraint violation....:   2.9837243786801082e-16    2.9837243786801082e-16
Complementarity.........:   0.0000000000000000e+00    0.0000000000000000e+00
Overall NLP error.......:   1.5543122344752192e-15    1.5543122344752192e-15


Number of objective function evaluations             = 9
Number of objective gradient evaluations             = 9
Number of equality constraint evaluations            = 9
Number of inequality constraint evaluations          = 0
Number of equality constraint Jacobian evaluations   = 9
Number of inequality constraint Jacobian evaluations = 0
Number of Lagrangian Hessian evaluations             = 8
Total CPU secs in IPOPT (w/o function evaluations)   =      0.007
Total CPU secs in NLP function evaluations           =      0.000

EXIT: Optimal Solution Found.

************************ CUTEst statistics ************************


 Package used            :  IPOPT
 Problem                 :  BT11      
 # variables             =               5
 # constraints           =               3
 # objective functions   =        0.1900000E+02
 # objective gradients   =        0.1000000E+02
 # objective Hessians    =        0.9000000E+01
 # Hessian-vector prdct  =        0.0000000E+00
 # constraints functions =        0.2000000E+02
 # constraints gradients =        0.1100000E+02
 # constraints Hessians  =        0.9000000E+01
 Exit code               =               0
 Final f                 =   0.8248918E+00
 Set up time             =            0.00 seconds
 Solve time              =            0.02 seconds


******************************************************************

System Time =       0.0030000000 s.
